10
10
0 1 2.0 2.0
0 2 0.01 0.01
0 3 0.01 0.01
0 4 0.01 0.01
0 5 0.01 0.01
0 6 0.01 0.01
0 7 0.01 0.01
0 8 0.01 0.01
0 9 0.01 0.01
1 2 0.01 0.01
1 3 0.01 0.01
1 4 0.01 0.01
1 5 0.01 0.01
1 6 0.01 0.01
1 7 0.01 0.01
1 8 0.01 0.01
1 9 0.01 0.01
2 3 2.0 2.0
2 4 0.01 0.01
2 5 0.01 0.01
2 6 0.01 0.01
2 7 0.01 0.01
2 8 0.01 0.01
2 9 0.01 0.01
3 4 0.01 0.01
3 5 0.01 0.01
3 6 0.01 0.01
3 7 0.01 0.01
3 8 0.01 0.01
3 9 0.01 0.01
4 5 2.0 2.0
4 6 0.01 0.01
4 7 0.01 0.01
4 8 0.01 0.01
4 9 0.01 0.01
5 6 0.01 0.01
5 7 0.01 0.01
5 8 0.01 0.01
5 9 0.01 0.01
6 7 2.0 2.0
6 8 0.01 0.01
6 9 0.01 0.01
7 8 0.01 0.01
7 9 0.01 0.01
8 9 2.0 2.0
